(set-info :smt-lib-version 2.6)
(set-logic QF_UF)
(set-info :source |
Generated by: David Deharbe, CLEARSY
Generated on: 2019-09-09
Generator: bxml;pog;pog2smt (Atelier B)
Application: B-method
Target solver: CVC4, Z3
|)
(set-info :license "https://creativecommons.org/licenses/by-nc/4.0/")
(set-info :category "industrial")
(set-info :status sat)
; Prelude
(declare-sort U 0)
(declare-fun |*i| (U U) U)
(declare-fun |+i| (U U) U)
(declare-fun |-i| (U U) U)
(declare-fun idiv (U U) U)
(declare-fun |*r| (U U) U)
(declare-fun |+r| (U U) U)
(declare-fun |-r| (U U) U)
(declare-fun rdiv (U U) U)
(declare-fun modulo (U U) U)
(declare-fun |<i| (U U) Bool)
(declare-fun |<=i| (U U) Bool)
(declare-fun |>i| (U U) Bool)
(declare-fun |>=i| (U U) Bool)
(declare-fun |<r| (U U) Bool)
(declare-fun |<=r| (U U) Bool)
(declare-fun |>r| (U U) Bool)
(declare-fun |>=r| (U U) Bool)
(declare-fun iuminus (U) U)
(declare-fun ruminus (U) U)
(declare-fun TRUE () U)
(declare-fun FALSE () U)
(assert (not (= TRUE FALSE)))
(declare-fun empty () U)
(declare-fun bool (Bool) U)
(declare-fun BOOL () U)
(declare-fun INT () U)
(declare-fun INTEGER () U)
(declare-fun NAT () U)
(declare-fun NAT1 () U)
(declare-fun NATURAL () U)
(declare-fun NATURAL1 () U)
(declare-fun FLOAT () U)
(declare-fun MaxInt () U)
(declare-fun MinInt () U)
(declare-fun |STRING| () U)
(declare-fun REAL () U)
(declare-fun set_prod (U U) U)
(declare-fun set_diff (U U) U)
(declare-fun mapplet (U U) U)
(declare-fun |**i| (U U) U)
(declare-fun |**r| (U U) U)
(declare-fun |+->| (U U) U)
(declare-fun |+->>| (U U) U)
(declare-fun |-->| (U U) U)
(declare-fun |-->>| (U U) U)
(declare-fun |<->| (U U) U)
(declare-fun |>+>| (U U) U)
(declare-fun |>->| (U U) U)
(declare-fun |>+>>| (U U) U)
(declare-fun |>->>| (U U) U)
(declare-fun |->| (U U) U)
(declare-fun interval (U U) U)
(declare-fun composition (U U) U)
(declare-fun binary_inter (U U) U)
(declare-fun restriction_head (U U) U)
(declare-fun semicolon (U U) U)
(declare-fun |<+| (U U) U)
(declare-fun |<-| (U U) U)
(declare-fun domain_subtraction (U U) U)
(declare-fun domain_restriction (U U) U)
(declare-fun |><| (U U) U)
(declare-fun parallel_product (U U) U)
(declare-fun binary_union (U U) U)
(declare-fun restriction_tail (U U) U)
(declare-fun concatenate (U U) U)
(declare-fun range_restriction (U U) U)
(declare-fun range_subtraction (U U) U)
(declare-fun image (U U) U)
(declare-fun apply (U U) U)
(declare-fun prj1 (U U) U)
(declare-fun prj2 (U U) U)
(declare-fun iterate (U U) U)
(declare-fun |const| (U U) U)
(declare-fun rank (U U) U)
(declare-fun father (U U) U)
(declare-fun subtree (U U) U)
(declare-fun arity (U U) U)
(declare-fun |+f| (U U) U)
(declare-fun |-f| (U U) U)
(declare-fun |*f| (U U) U)
(declare-fun |fdiv| (U U) U)
(declare-fun tbin (U U U) U)
(declare-fun son (U U U) U)
(declare-fun mem (U U) Bool)
(declare-fun subset (U U) Bool)
(declare-fun strict_subset (U U) Bool)
(declare-fun |<=f| (U U) Bool)
(declare-fun |<f| (U U) Bool)
(declare-fun |>=f| (U U) Bool)
(declare-fun |>f| (U U) Bool)
(declare-fun imax (U) U)
(declare-fun imin (U) U)
(declare-fun rmax (U) U)
(declare-fun rmin (U) U)
(declare-fun card (U) U)
(declare-fun dom (U) U)
(declare-fun ran (U) U)
(declare-fun POW (U) U)
(declare-fun POW1 (U) U)
(declare-fun FIN (U) U)
(declare-fun FIN1 (U) U)
(declare-fun union (U) U)
(declare-fun inter (U) U)
(declare-fun seq (U) U)
(declare-fun seq1 (U) U)
(declare-fun iseq (U) U)
(declare-fun iseq1 (U) U)
(declare-fun inverse (U) U)
(declare-fun size (U) U)
(declare-fun perm (U) U)
(declare-fun first (U) U)
(declare-fun last (U) U)
(declare-fun id (U) U)
(declare-fun closure (U) U)
(declare-fun closure1 (U) U)
(declare-fun tail (U) U)
(declare-fun front (U) U)
(declare-fun reverse (U) U)
(declare-fun rev (U) U)
(declare-fun conc (U) U)
(declare-fun succ (U) U)
(declare-fun pred (U) U)
(declare-fun rel (U) U)
(declare-fun fnc (U) U)
(declare-fun real (U) U)
(declare-fun floor (U) U)
(declare-fun ceiling (U) U)
(declare-fun tree (U) U)
(declare-fun btree (U) U)
(declare-fun top (U) U)
(declare-fun sons (U) U)
(declare-fun prefix (U) U)
(declare-fun postfix (U) U)
(declare-fun sizet (U) U)
(declare-fun mirror (U) U)
(declare-fun left (U) U)
(declare-fun right (U) U)
(declare-fun infix (U) U)
(declare-fun ubin (U) U)
(declare-fun SEQ (U) U)
(declare-fun SET (U) U)
; Opaque formulas
(declare-fun e0 () U)
(declare-fun e12 () U)
(declare-fun e63 () U)
(declare-fun e65 () U)
(declare-fun e67 () U)
(declare-fun e69 () U)
(declare-fun e71 () U)
(declare-fun e73 () U)
(declare-fun e75 () U)
(declare-fun e77 () U)
(declare-fun e79 () U)
(declare-fun e81 () U)
(declare-fun e83 () U)
(declare-fun e85 () U)
(declare-fun e87 () U)
(declare-fun e89 () U)
(declare-fun e91 () U)
(declare-fun e93 () U)
(declare-fun e95 () U)
(declare-fun e97 () U)
(declare-fun e99 () U)
(declare-fun e101 () U)
(declare-fun e103 () U)
(declare-fun e105 () U)
(declare-fun e107 () U)
(declare-fun e109 () U)
(declare-fun e111 () U)
(declare-fun e113 () U)
(declare-fun e115 () U)
(declare-fun e117 () U)
(declare-fun e119 () U)
(declare-fun e121 () U)
(declare-fun e123 () U)
(declare-fun e125 () U)
(declare-fun e127 () U)
(declare-fun e129 () U)
(declare-fun e131 () U)
(declare-fun e133 () U)
(declare-fun e135 () U)
(declare-fun e137 () U)
(declare-fun e139 () U)
(declare-fun e141 () U)
(declare-fun e143 () U)
(declare-fun e145 () U)
(declare-fun e147 () U)
(declare-fun e149 () U)
(declare-fun e151 () U)
(declare-fun e153 () U)
(declare-fun e155 () U)
(declare-fun e157 () U)
(declare-fun e159 () U)
(declare-fun e161 () U)
(declare-fun e163 () U)
(declare-fun e165 () U)
(declare-fun e167 () U)
(declare-fun e169 () U)
(declare-fun e171 () U)
(declare-fun e173 () U)
(declare-fun e175 () U)
(declare-fun e177 () U)
(declare-fun g_s0_1 () U)
(declare-fun g_s1_2 () U)
(declare-fun g_s10_11 () U)
(declare-fun g_s100_140 () U)
(declare-fun g_s101_142 () U)
(declare-fun g_s102_144 () U)
(declare-fun g_s103_146 () U)
(declare-fun g_s104_148 () U)
(declare-fun g_s105_150 () U)
(declare-fun g_s106_152 () U)
(declare-fun g_s107_154 () U)
(declare-fun g_s108_156 () U)
(declare-fun g_s109_158 () U)
(declare-fun g_s11_13 () U)
(declare-fun g_s110_160 () U)
(declare-fun g_s111_162 () U)
(declare-fun g_s112_164 () U)
(declare-fun g_s113_166 () U)
(declare-fun g_s114_168 () U)
(declare-fun g_s115_170 () U)
(declare-fun g_s116_172 () U)
(declare-fun g_s117_174 () U)
(declare-fun g_s118_176 () U)
(declare-fun g_s119_178 () U)
(declare-fun g_s12_14 () U)
(declare-fun g_s120_179 () U)
(declare-fun g_s121_181 () U)
(declare-fun g_s122_180 () U)
(declare-fun g_s123_184 () U)
(declare-fun g_s124_183 () U)
(declare-fun g_s125_182 () U)
(declare-fun g_s126_185 () U)
(declare-fun g_s127_186 () U)
(declare-fun g_s128_187 () U)
(declare-fun g_s129_188 () U)
(declare-fun g_s13_15 () U)
(declare-fun g_s130_189 () U)
(declare-fun g_s131_190 () U)
(declare-fun g_s132_191 () U)
(declare-fun g_s133_192 () U)
(declare-fun g_s134_193 () U)
(declare-fun g_s135_194 () U)
(declare-fun g_s136_196 () U)
(declare-fun g_s137_195 () U)
(declare-fun g_s138_197 () U)
(declare-fun g_s139$1_198 () U)
(declare-fun g_s14_16 () U)
(declare-fun g_s141_199 () U)
(declare-fun g_s141$1_200 () U)
(declare-fun g_s142_201 () U)
(declare-fun g_s142$1_202 () U)
(declare-fun g_s143_203 () U)
(declare-fun g_s143$1_204 () U)
(declare-fun g_s144_205 () U)
(declare-fun g_s15_17 () U)
(declare-fun g_s16_18 () U)
(declare-fun g_s17_19 () U)
(declare-fun g_s18_20 () U)
(declare-fun g_s19_21 () U)
(declare-fun g_s2_3 () U)
(declare-fun g_s20_22 () U)
(declare-fun g_s21_23 () U)
(declare-fun g_s22_24 () U)
(declare-fun g_s23_25 () U)
(declare-fun g_s24_26 () U)
(declare-fun g_s25_27 () U)
(declare-fun g_s26_28 () U)
(declare-fun g_s27_29 () U)
(declare-fun g_s28_30 () U)
(declare-fun g_s29_31 () U)
(declare-fun g_s3_4 () U)
(declare-fun g_s30_32 () U)
(declare-fun g_s31_33 () U)
(declare-fun g_s32_34 () U)
(declare-fun g_s33_35 () U)
(declare-fun g_s34_36 () U)
(declare-fun g_s35_37 () U)
(declare-fun g_s36_38 () U)
(declare-fun g_s37_39 () U)
(declare-fun g_s38_40 () U)
(declare-fun g_s39_41 () U)
(declare-fun g_s4_6 () U)
(declare-fun g_s40_42 () U)
(declare-fun g_s41_43 () U)
(declare-fun g_s42_44 () U)
(declare-fun g_s43_45 () U)
(declare-fun g_s44_46 () U)
(declare-fun g_s45_47 () U)
(declare-fun g_s46_48 () U)
(declare-fun g_s47_49 () U)
(declare-fun g_s48_50 () U)
(declare-fun g_s51_52 () U)
(declare-fun g_s52_53 () U)
(declare-fun g_s53_54 () U)
(declare-fun g_s54_55 () U)
(declare-fun g_s55_56 () U)
(declare-fun g_s56_58 () U)
(declare-fun g_s57_57 () U)
(declare-fun g_s58_59 () U)
(declare-fun g_s59_60 () U)
(declare-fun g_s6_8 () U)
(declare-fun g_s60_61 () U)
(declare-fun g_s61_62 () U)
(declare-fun g_s62_64 () U)
(declare-fun g_s63_66 () U)
(declare-fun g_s64_68 () U)
(declare-fun g_s65_70 () U)
(declare-fun g_s66_72 () U)
(declare-fun g_s67_74 () U)
(declare-fun g_s68_76 () U)
(declare-fun g_s69_78 () U)
(declare-fun g_s70_80 () U)
(declare-fun g_s71_82 () U)
(declare-fun g_s72_84 () U)
(declare-fun g_s73_86 () U)
(declare-fun g_s74_88 () U)
(declare-fun g_s75_90 () U)
(declare-fun g_s76_92 () U)
(declare-fun g_s77_94 () U)
(declare-fun g_s78_96 () U)
(declare-fun g_s79_98 () U)
(declare-fun g_s8_10 () U)
(declare-fun g_s80_100 () U)
(declare-fun g_s81_102 () U)
(declare-fun g_s82_104 () U)
(declare-fun g_s83_106 () U)
(declare-fun g_s84_108 () U)
(declare-fun g_s85_110 () U)
(declare-fun g_s86_112 () U)
(declare-fun g_s87_114 () U)
(declare-fun g_s88_116 () U)
(declare-fun g_s89_118 () U)
(declare-fun g_s9_9 () U)
(declare-fun g_s90_120 () U)
(declare-fun g_s91_122 () U)
(declare-fun g_s92_124 () U)
(declare-fun g_s93_126 () U)
(declare-fun g_s94_128 () U)
(declare-fun g_s95_130 () U)
(declare-fun g_s96_132 () U)
(declare-fun g_s97_134 () U)
(declare-fun g_s98_136 () U)
(declare-fun g_s99_138 () U)
(declare-fun e5 () U)
(declare-fun e7 () U)
(declare-fun e51 () U)
; Defines
(define-fun |def_B definitions| () Bool (and (= NAT (interval e0 MaxInt)) (= INT (interval MinInt MaxInt))))
(define-fun |def_ctx| () Bool (and (not (= g_s0_1 empty)) (not (= g_s1_2 empty)) (not (= g_s2_3 empty)) (not (= g_s3_4 empty)) (= g_s4_6 e5) (= g_s6_8 e7) (= g_s8_10 (interval (iuminus g_s9_9) g_s9_9)) (= g_s10_11 (interval e0 g_s9_9)) (= g_s11_13 (interval e12 g_s9_9)) (subset g_s11_13 g_s10_11) (subset g_s10_11 g_s8_10) (subset g_s10_11 NAT) (subset g_s11_13 NAT1) (subset g_s8_10 INT) (mem g_s12_14 g_s8_10) (mem g_s12_14 g_s10_11) (not (mem g_s12_14 g_s11_13)) (mem g_s13_15 g_s8_10) (not (mem g_s13_15 g_s10_11)) (= g_s14_16 (interval (iuminus g_s9_9) g_s9_9)) (subset g_s14_16 INT) (subset g_s15_17 g_s0_1) (mem g_s16_18 g_s0_1) (mem g_s16_18 g_s15_17) (mem g_s17_19 g_s0_1) (not (mem g_s17_19 g_s15_17)) (mem g_s18_20 (|+->| NAT g_s0_1)) (mem g_s18_20 (perm g_s15_17)) (= (card g_s15_17) g_s19_21) (subset g_s20_22 g_s1_2) (mem g_s21_23 g_s1_2) (mem g_s21_23 g_s20_22) (mem g_s22_24 g_s1_2) (not (mem g_s22_24 g_s20_22)) (mem g_s23_25 (|+->| NAT g_s1_2)) (mem g_s23_25 (perm g_s20_22)) (= (card g_s20_22) g_s24_26) (mem g_s25_27 (|+->| (set_prod g_s14_16 g_s14_16) g_s14_16)) (subset g_s26_28 g_s14_16) (mem g_s27_29 (|-->| (set_prod g_s10_11 g_s10_11) g_s14_16)) (mem g_s28_30 (|+->| (set_prod g_s10_11 g_s14_16) g_s10_11)) (mem g_s29_31 (|-->| (set_prod g_s10_11 g_s14_16) g_s10_11)) (mem g_s30_32 (|-->| (set_prod g_s10_11 g_s14_16) (POW g_s10_11))) (mem g_s31_33 (|-->| (set_prod g_s10_11 g_s10_11) (POW g_s10_11))) (mem g_s32_34 (|-->| (set_prod g_s10_11 g_s10_11) (POW g_s10_11))) (mem g_s33_35 (|-->| (set_prod g_s10_11 g_s10_11) (POW g_s10_11))) (mem g_s34_36 (|-->| (set_prod g_s10_11 g_s10_11) (POW g_s10_11))) (mem g_s35_37 (|<->| g_s10_11 g_s10_11)) (mem g_s36_38 (|<->| g_s10_11 g_s10_11)) (mem g_s37_39 (|<->| (set_prod g_s10_11 g_s14_16) g_s10_11)) (mem g_s38_40 (|<->| (set_prod g_s10_11 g_s14_16) g_s10_11)) (mem g_s39_41 (|<->| (set_prod g_s10_11 g_s14_16) g_s10_11)) (mem g_s40_42 (|<->| (set_prod g_s10_11 g_s14_16) g_s10_11)) (mem g_s41_43 (|<->| g_s10_11 g_s10_11)) (mem g_s42_44 (|<->| g_s10_11 g_s10_11)) (mem g_s43_45 (|<->| (set_prod g_s10_11 g_s14_16) g_s10_11)) (mem g_s44_46 (|<->| (set_prod g_s10_11 g_s14_16) g_s10_11)) (mem g_s45_47 (|<->| (set_prod g_s10_11 g_s14_16) g_s10_11)) (mem g_s46_48 (|<->| (set_prod g_s10_11 g_s14_16) g_s10_11)) (mem g_s47_49 (|-->| (set_prod g_s10_11 g_s10_11) g_s10_11)) (mem g_s48_50 (|-->| (set_prod g_s10_11 g_s10_11) g_s10_11)) (= (dom g_s28_30) (set_prod g_s10_11 (interval e0 g_s9_9))) (= (dom g_s25_27) e51) (subset g_s51_52 g_s2_3) (mem g_s52_53 g_s2_3) (not (mem g_s52_53 g_s51_52)) (subset g_s53_54 g_s3_4) (mem g_s54_55 g_s3_4) (not (mem g_s54_55 g_s53_54)) (mem g_s55_56 (|+->| NAT g_s3_4)) (mem g_s55_56 (perm g_s53_54)) (mem g_s56_58 (|>->| g_s53_54 g_s57_57))))
(define-fun |def_seext| () Bool (and (= g_s58_59 TRUE) (= g_s59_60 FALSE) (= g_s60_61 e0) (= g_s61_62 e12) (= g_s62_64 e63) (= g_s63_66 e65) (= g_s64_68 e67) (= g_s65_70 e69) (= g_s66_72 e71) (= g_s67_74 e73) (= g_s68_76 e75) (= g_s69_78 e77) (= g_s70_80 e79) (= g_s71_82 e81) (= g_s72_84 e83) (= g_s73_86 e85) (= g_s74_88 e87) (= g_s75_90 e89) (= g_s76_92 e91) (= g_s77_94 e93) (= g_s78_96 e95) (= g_s79_98 e97) (= g_s80_100 e99) (= g_s81_102 e101) (= g_s82_104 e103) (= g_s83_106 e105) (= g_s84_108 e107) (= g_s85_110 e109) (= g_s86_112 e111) (= g_s87_114 e113) (= g_s88_116 e115) (= g_s89_118 e117) (= g_s90_120 e119) (= g_s91_122 e121) (= g_s92_124 e123) (= g_s93_126 e125) (= g_s94_128 e127) (= g_s95_130 e129) (= g_s96_132 e131) (= g_s97_134 e133) (= g_s98_136 e135) (= g_s99_138 e137) (= g_s100_140 e139) (= g_s101_142 e141) (= g_s102_144 e143) (= g_s103_146 e145) (= g_s104_148 e147) (= g_s105_150 e149) (= g_s106_152 e151) (= g_s107_154 e153) (= g_s108_156 e155) (= g_s109_158 e157) (= g_s110_160 e159) (= g_s111_162 e161) (= g_s112_164 e163) (= g_s113_166 e165) (= g_s114_168 e167) (= g_s115_170 e169) (= g_s116_172 e171) (= g_s117_174 e173) (= g_s118_176 e175) (= g_s119_178 e177) (subset g_s120_179 g_s53_54) (mem g_s121_181 (|-->| g_s53_54 g_s122_180)) (mem g_s123_184 (|+->| (set_prod g_s53_54 g_s124_183) g_s125_182)) (mem g_s126_185 (|<->| g_s53_54 g_s124_183)) (mem g_s127_186 (|<->| g_s53_54 g_s124_183)) (mem g_s128_187 (|<->| g_s53_54 g_s124_183)) (mem g_s129_188 (|<->| g_s53_54 g_s124_183)) (mem g_s130_189 (|<->| g_s53_54 g_s124_183)) (mem g_s131_190 (|<->| g_s53_54 g_s124_183)) (mem g_s132_191 (|<->| g_s53_54 g_s124_183)) (mem g_s133_192 (|+->| g_s53_54 g_s10_11)) (mem g_s134_193 (|+->| g_s53_54 g_s10_11)) (mem g_s135_194 (|+->| g_s53_54 g_s51_52)) (mem g_s136_196 (|+->| g_s53_54 g_s137_195)) (subset g_s138_197 g_s53_54)))
(define-fun |def_mchcst| () Bool true)
(define-fun |def_aprp| () Bool true)
(define-fun |def_abs| () Bool true)
(define-fun |def_inv| () Bool  (mem g_s139$1_198 g_s8_10))
(define-fun |def_ass| () Bool true)
(define-fun |def_sets| () Bool true)
(define-fun |def_imlprp| () Bool true)
(define-fun |def_imprp| () Bool true)
(define-fun |def_imext| () Bool true)
; PO group 0 
(assert |def_B definitions|)
(assert |def_ctx|)
(assert |def_mchcst|)
(assert |def_aprp|)
(assert |def_imlprp|)
(assert |def_imprp|)
(assert |def_imext|)
(assert |def_seext|)
(assert |def_abs|)
(assert |def_inv|)
(assert |def_ass|)
(assert (= g_s141$1_200 g_s141_199))
(assert (= g_s142$1_202 g_s142_201))
(assert (= g_s143$1_204 g_s143_203))
(define-fun lh_1 () Bool (mem g_s144_205 g_s3_4))
(define-fun lh_2 () Bool (mem g_s144_205 g_s53_54))
(define-fun lh_3 () Bool (= (bool (mem g_s144_205 g_s120_179)) TRUE))
(define-fun lh_4 () Bool (= (bool (mem g_s144_205 (dom g_s133_192))) TRUE))
; PO 1 in group 0
(assert (not (=> (and lh_1 lh_2 lh_3 lh_4) (mem g_s144_205 (dom g_s133_192)))))
(check-sat)
(exit)